c "870910.clq"
p edge 150 584
e 1 5
e 1 6
e 1 7
e 1 8
e 1 9
e 1 12
e 1 13
e 1 16
e 1 17
e 1 19
e 1 20
e 1 22
e 1 23
e 1 28
e 1 29
e 1 36
e 1 37
e 1 39
e 1 40
e 1 41
e 1 43
e 1 57
e 1 65
e 1 75
e 1 83
e 1 98
e 1 100
e 1 104
e 1 106
e 1 110
e 1 117
e 1 118
e 1 119
e 1 125
e 1 131
e 1 133
e 1 136
e 1 142
e 1 144
e 1 149
e 2 5
e 2 6
e 2 7
e 2 23
e 2 32
e 2 33
e 2 42
e 2 45
e 2 49
e 2 50
e 2 54
e 2 62
e 2 63
e 2 64
e 2 71
e 2 72
e 2 86
e 2 91
e 2 150
e 3 5
e 4 5
e 4 6
e 4 7
e 4 9
e 4 10
e 4 11
e 4 15
e 4 17
e 4 18
e 4 20
e 4 21
e 4 24
e 4 34
e 4 36
e 4 38
e 4 47
e 4 55
e 4 58
e 4 74
e 4 76
e 4 81
e 4 84
e 4 91
e 4 96
e 4 103
e 4 120
e 5 6
e 5 8
e 5 9
e 5 13
e 5 16
e 5 19
e 5 24
e 5 25
e 5 26
e 5 35
e 5 46
e 5 64
e 5 68
e 5 82
e 5 85
e 5 101
e 5 104
e 5 119
e 5 131
e 6 7
e 6 8
e 6 13
e 6 14
e 6 18
e 6 22
e 6 24
e 6 25
e 6 44
e 6 45
e 6 56
e 6 61
e 6 64
e 6 67
e 6 68
e 6 70
e 6 75
e 6 79
e 6 88
e 6 93
e 6 100
e 6 107
e 6 114
e 6 116
e 6 119
e 6 121
e 6 135
e 6 149
e 7 8
e 7 9
e 7 10
e 7 11
e 7 12
e 7 13
e 7 15
e 7 16
e 7 19
e 7 20
e 7 40
e 7 42
e 7 50
e 7 51
e 7 52
e 7 57
e 7 81
e 7 84
e 7 91
e 7 93
e 7 106
e 7 108
e 7 118
e 7 137
e 7 143
e 7 145
e 8 10
e 8 11
e 8 15
e 8 16
e 8 18
e 8 26
e 8 27
e 8 28
e 8 29
e 8 34
e 8 35
e 8 37
e 8 44
e 8 45
e 8 52
e 8 59
e 8 60
e 8 76
e 8 87
e 8 89
e 8 95
e 8 107
e 8 121
e 8 122
e 8 123
e 9 10
e 9 11
e 9 12
e 9 14
e 9 17
e 9 23
e 9 27
e 9 29
e 9 30
e 9 31
e 9 35
e 9 37
e 9 39
e 9 41
e 9 49
e 9 54
e 9 55
e 9 74
e 9 97
e 9 100
e 9 102
e 9 107
e 9 112
e 9 117
e 9 124
e 9 145
e 9 146
e 10 14
e 10 17
e 10 21
e 10 25
e 10 31
e 10 32
e 10 40
e 10 53
e 10 56
e 10 59
e 10 62
e 10 66
e 10 75
e 10 86
e 10 87
e 10 96
e 10 121
e 10 142
e 10 149
e 11 12
e 11 14
e 11 67
e 11 74
e 11 124
e 12 15
e 12 22
e 12 31
e 12 43
e 12 59
e 12 92
e 12 111
e 12 129
e 12 132
e 12 134
e 12 136
e 13 61
e 13 73
e 13 109
e 14 20
e 14 55
e 14 105
e 15 19
e 15 28
e 15 30
e 15 32
e 15 34
e 15 50
e 15 52
e 15 62
e 15 90
e 15 109
e 15 119
e 15 122
e 15 127
e 16 21
e 16 22
e 16 23
e 16 33
e 16 36
e 16 39
e 16 47
e 16 51
e 16 53
e 16 58
e 16 66
e 16 68
e 16 97
e 16 108
e 16 116
e 16 118
e 16 128
e 16 138
e 16 148
e 17 18
e 17 25
e 17 63
e 17 69
e 17 77
e 17 80
e 18 34
e 18 38
e 18 48
e 18 89
e 18 103
e 18 147
e 19 21
e 19 26
e 19 30
e 19 35
e 19 80
e 21 24
e 21 31
e 21 69
e 21 81
e 21 90
e 21 92
e 21 104
e 21 107
e 21 112
e 21 144
e 22 30
e 22 42
e 22 57
e 22 98
e 22 123
e 22 135
e 22 139
e 23 29
e 23 44
e 23 56
e 23 98
e 23 132
e 23 137
e 24 26
e 24 27
e 24 32
e 24 33
e 24 43
e 24 49
e 24 57
e 24 58
e 24 60
e 24 66
e 24 93
e 25 28
e 25 33
e 25 45
e 25 51
e 25 52
e 25 62
e 25 65
e 25 67
e 25 69
e 25 75
e 25 76
e 25 78
e 25 99
e 25 103
e 25 106
e 25 128
e 25 134
e 25 140
e 25 143
e 25 146
e 26 27
e 26 39
e 26 56
e 26 68
e 26 73
e 26 84
e 26 112
e 26 134
e 27 54
e 27 92
e 27 108
e 27 137
e 28 46
e 28 50
e 28 58
e 28 61
e 28 72
e 28 81
e 28 82
e 28 120
e 28 137
e 29 101
e 29 135
e 30 42
e 30 94
e 31 37
e 31 38
e 31 54
e 31 71
e 31 86
e 31 121
e 31 122
e 31 129
e 32 36
e 32 38
e 32 48
e 32 49
e 32 66
e 32 67
e 32 90
e 32 95
e 33 40
e 33 44
e 33 46
e 33 61
e 33 130
e 34 46
e 34 99
e 34 102
e 34 113
e 35 41
e 35 47
e 35 71
e 35 110
e 35 113
e 36 48
e 36 71
e 36 78
e 36 79
e 36 85
e 37 48
e 37 53
e 37 102
e 37 136
e 38 41
e 38 51
e 38 55
e 38 77
e 38 78
e 38 80
e 38 83
e 38 95
e 38 126
e 38 139
e 38 141
e 38 145
e 38 146
e 39 53
e 39 70
e 39 115
e 39 147
e 40 59
e 40 111
e 41 43
e 41 60
e 41 74
e 41 82
e 41 122
e 42 47
e 42 60
e 42 111
e 43 63
e 43 85
e 43 88
e 44 65
e 44 83
e 44 100
e 45 63
e 45 129
e 46 70
e 46 76
e 46 90
e 47 113
e 48 110
e 48 134
e 49 70
e 50 85
e 50 87
e 52 80
e 53 79
e 53 87
e 53 113
e 53 141
e 54 89
e 54 143
e 55 99
e 55 144
e 56 102
e 57 72
e 57 89
e 58 99
e 59 64
e 59 106
e 59 116
e 59 132
e 59 142
e 60 69
e 60 86
e 60 93
e 60 127
e 61 92
e 62 84
e 62 101
e 62 114
e 62 140
e 63 133
e 64 65
e 64 88
e 64 126
e 66 120
e 66 125
e 67 131
e 67 145
e 68 73
e 68 78
e 68 94
e 69 79
e 69 105
e 69 115
e 70 72
e 70 73
e 70 126
e 70 139
e 71 82
e 71 83
e 71 117
e 72 135
e 73 77
e 73 91
e 73 116
e 73 118
e 73 120
e 73 136
e 74 127
e 74 132
e 74 141
e 75 77
e 75 94
e 76 95
e 76 97
e 76 101
e 76 133
e 77 130
e 78 103
e 78 109
e 78 141
e 79 94
e 79 124
e 79 125
e 80 96
e 80 138
e 83 123
e 84 88
e 86 97
e 86 125
e 86 133
e 89 115
e 90 130
e 91 98
e 92 114
e 93 123
e 93 150
e 94 105
e 94 115
e 94 138
e 95 96
e 95 111
e 97 117
e 97 142
e 98 109
e 98 140
e 99 104
e 99 105
e 101 114
e 102 110
e 102 148
e 103 108
e 103 124
e 105 128
e 107 112
e 108 129
e 109 130
e 109 138
e 110 146
e 115 127
e 116 128
e 116 139
e 118 148
e 122 126
e 122 131
e 122 149
e 122 150
e 129 140
e 131 147
e 131 148
e 134 144
e 134 150
e 137 147
e 139 143
